c NeuroCodeBench 2.0 CNF formula with verdict Unsat
p cnf 40 66
1 -4 -40 -16 -39 -29 -19 0
1 4 -3 -27 33 -40 -24 0
-1 40 -36 -8 29 -2 30 -28 -6 0
-1 -40 -31 12 -18 2 0
1 4 -3 27 40 -22 0
1 -4 40 23 -12 0
-1 -40 31 9 -28 0
-1 40 -36 8 -22 0
-1 40 -36 -8 -29 -30 -39 12 0
-1 40 -36 -8 -29 -30 39 32 0
1 4 3 22 26 36 -16 0
-1 40 -36 -8 29 -2 30 -28 6 0
-1 40 -36 -8 -29 -30 39 -32 0
1 4 3 22 26 -36 37 23 -18 0
1 4 -3 -27 33 40 39 0
-1 -40 -31 -12 -22 0
-1 40 -36 -8 -29 30 0
1 4 -3 -27 -33 -17 0
-1 -40 -31 12 18 -36 0
1 4 -3 27 -40 0
-1 -40 -31 -12 22 -4 0
1 4 3 22 26 -36 37 -23 0
1 -4 40 -23 -28 0
-1 40 36 23 -39 13 0
-1 40 -36 -8 29 -2 -30 0
1 4 -3 -27 33 -40 24 20 -28 0
-1 -40 -31 12 -18 -2 0
1 -4 40 23 12 29 5 0
1 4 3 22 26 -36 37 23 18 0
1 4 -3 -27 33 -40 24 -20 0
-1 40 -36 -8 29 2 -33 0
-1 40 36 23 39 8 0
1 -4 40 23 12 29 -5 17 0
-1 40 -36 -8 29 -2 30 28 0
1 -4 -40 -16 39 -33 0
-1 -40 31 9 28 2 0
-1 -40 -31 12 18 36 0
1 -4 -40 -16 -39 -29 19 0
1 4 3 22 26 36 16 0
1 4 -3 27 40 22 0
1 -4 40 23 12 29 -5 -17 0
-1 40 -36 8 22 0
-1 -40 -31 -12 22 4 0
1 4 -3 -27 33 40 -39 0
1 -4 -40 -16 -39 29 0
1 -4 -40 16 -15 0
1 -4 -40 16 15 -30 0
1 4 3 22 -26 5 -30 0
-1 40 -36 -8 29 2 33 0
-1 -40 31 -9 0
1 4 3 22 26 -36 -37 0
-1 40 36 23 39 -8 0
1 4 3 22 -26 -5 0
-1 40 36 -23 29 0
-1 40 36 -23 -29 0
-1 40 36 23 -39 -13 0
-1 -40 31 9 28 -2 0
1 4 3 -22 0
1 -4 -40 -16 39 33 0
1 -4 40 -23 28 0
1 4 -3 -27 33 -40 24 20 28 0
-1 40 -36 -8 -29 -30 -39 -12 0
1 4 3 22 -26 5 30 0
1 -4 -40 16 15 30 0
1 -4 40 23 12 -29 0
1 4 -3 -27 -33 17 0
